p cnf 1590
-22 -498
-23 -501
-24 -504
-25 -507
-26 -510
-27 -513
-28 -516
-29 -519
-30 -522
-31 -525
-32 -528
-33 -531
-34 -534
-35 -537
-36 -540
-37 -543
-38 -546
-39 -549
-40 -552
-41 -555
-42 -558
-43 559
-44 560
-45 561
-46 562
-47 563
-48 564
-49 565
-50 566
-51 567
-52 568
-53 569
-54 570
-55 571
-56 572
-57 -23
-57 -24
23 24 57
-58 -25
-58 -26
25 26 58
-59 -27
-59 -28
27 28 59
-60 -29
-60 -30
29 30 60
-61 -31
-61 -32
31 32 61
-62 -33
-62 -34
33 34 62
-63 -35
-63 -36
35 36 63
-64 -37
-64 -38
37 38 64
-65 -39
-65 -40
39 40 65
-66 -41
-66 -42
41 42 66
-67 -43
-67 -44
43 44 67
-68 -45
-68 -46
45 46 68
-69 -47
-69 -48
47 48 69
-70 -49
-70 -50
49 50 70
-71 -51
-71 -52
51 52 71
-72 -53
-72 -54
53 54 72
-73 -55
-73 -56
55 56 73
-74 57
-74 58
-57 -58 74
-75 59
-75 60
-59 -60 75
-76 61
-76 62
-61 -62 76
-77 63
-77 64
-63 -64 77
-78 65
-78 66
-65 -66 78
-79 67
-79 68
-67 -68 79
-80 69
-80 70
-69 -70 80
-81 71
-81 72
-71 -72 81
-82 74
-82 75
-74 -75 82
-83 76
-83 77
-76 -77 83
-84 78
-84 79
-78 -79 84
-85 80
-85 81
-80 -81 85
-86 82
-86 83
-82 -83 86
-87 84
-87 85
-84 -85 87
-88 86
-88 87
-86 -87 88
-89 73
-89 88
-73 -88 89
-90 -22
-90 23
22 -23 90
-91 22
-91 -23
-22 23 91
-92 -90
-92 -91
90 91 92
-93 22
-93 23
-22 -23 93
-94 -22
-94 -92
22 92 94
-95 22
-95 92
-22 -92 95
-96 -94
-96 -95
94 95 96
-97 22
-97 -92
-22 92 97
-98 -93
-98 -97
93 97 98
-99 -23
-99 24
23 -24 99
-100 23
-100 -24
-23 24 100
-101 -99
-101 -100
99 100 101
-102 23
-102 24
-23 -24 102
-103 98
-103 -101
-98 101 103
-104 -98
-104 101
98 -101 104
-105 -103
-105 -104
103 104 105
-106 -98
-106 -101
98 101 106
-107 -102
-107 -106
102 106 107
-108 -24
-108 25
24 -25 108
-109 24
-109 -25
-24 25 109
-110 -108
-110 -109
108 109 110
-111 24
-111 25
-24 -25 111
-112 107
-112 -110
-107 110 112
-113 -107
-113 110
107 -110 113
-114 -112
-114 -113
112 113 114
-115 -107
-115 -110
107 110 115
-116 -111
-116 -115
111 115 116
-117 -25
-117 26
25 -26 117
-118 25
-118 -26
-25 26 118
-119 -117
-119 -118
117 118 119
-120 25
-120 26
-25 -26 120
-121 116
-121 -119
-116 119 121
-122 -116
-122 119
116 -119 122
-123 -121
-123 -122
121 122 123
-124 -116
-124 -119
116 119 124
-125 -120
-125 -124
120 124 125
-126 -26
-126 27
26 -27 126
-127 26
-127 -27
-26 27 127
-128 -126
-128 -127
126 127 128
-129 26
-129 27
-26 -27 129
-130 125
-130 -128
-125 128 130
-131 -125
-131 128
125 -128 131
-132 -130
-132 -131
130 131 132
-133 -125
-133 -128
125 128 133
-134 -129
-134 -133
129 133 134
-135 -27
-135 28
27 -28 135
-136 27
-136 -28
-27 28 136
-137 -135
-137 -136
135 136 137
-138 27
-138 28
-27 -28 138
-139 134
-139 -137
-134 137 139
-140 -134
-140 137
134 -137 140
-141 -139
-141 -140
139 140 141
-142 -134
-142 -137
134 137 142
-143 -138
-143 -142
138 142 143
-144 -28
-144 29
28 -29 144
-145 28
-145 -29
-28 29 145
-146 -144
-146 -145
144 145 146
-147 28
-147 29
-28 -29 147
-148 143
-148 -146
-143 146 148
-149 -143
-149 146
143 -146 149
-150 -148
-150 -149
148 149 150
-151 -143
-151 -146
143 146 151
-152 -147
-152 -151
147 151 152
-153 -29
-153 30
29 -30 153
-154 29
-154 -30
-29 30 154
-155 -153
-155 -154
153 154 155
-156 29
-156 30
-29 -30 156
-157 152
-157 -155
-152 155 157
-158 -152
-158 155
152 -155 158
-159 -157
-159 -158
157 158 159
-160 -152
-160 -155
152 155 160
-161 -156
-161 -160
156 160 161
-162 -30
-162 31
30 -31 162
-163 30
-163 -31
-30 31 163
-164 -162
-164 -163
162 163 164
-165 30
-165 31
-30 -31 165
-166 161
-166 -164
-161 164 166
-167 -161
-167 164
161 -164 167
-168 -166
-168 -167
166 167 168
-169 -161
-169 -164
161 164 169
-170 -165
-170 -169
165 169 170
-171 -31
-171 32
31 -32 171
-172 31
-172 -32
-31 32 172
-173 -171
-173 -172
171 172 173
-174 31
-174 32
-31 -32 174
-175 170
-175 -173
-170 173 175
-176 -170
-176 173
170 -173 176
-177 -175
-177 -176
175 176 177
-178 -170
-178 -173
170 173 178
-179 -174
-179 -178
174 178 179
-180 -32
-180 33
32 -33 180
-181 32
-181 -33
-32 33 181
-182 -180
-182 -181
180 181 182
-183 32
-183 33
-32 -33 183
-184 179
-184 -182
-179 182 184
-185 -179
-185 182
179 -182 185
-186 -184
-186 -185
184 185 186
-187 -179
-187 -182
179 182 187
-188 -183
-188 -187
183 187 188
-189 -33
-189 34
33 -34 189
-190 33
-190 -34
-33 34 190
-191 -189
-191 -190
189 190 191
-192 33
-192 34
-33 -34 192
-193 188
-193 -191
-188 191 193
-194 -188
-194 191
188 -191 194
-195 -193
-195 -194
193 194 195
-196 -188
-196 -191
188 191 196
-197 -192
-197 -196
192 196 197
-198 -34
-198 35
34 -35 198
-199 34
-199 -35
-34 35 199
-200 -198
-200 -199
198 199 200
-201 34
-201 35
-34 -35 201
-202 197
-202 -200
-197 200 202
-203 -197
-203 200
197 -200 203
-204 -202
-204 -203
202 203 204
-205 -197
-205 -200
197 200 205
-206 -201
-206 -205
201 205 206
-207 -35
-207 36
35 -36 207
-208 35
-208 -36
-35 36 208
-209 -207
-209 -208
207 208 209
-210 35
-210 36
-35 -36 210
-211 206
-211 -209
-206 209 211
-212 -206
-212 209
206 -209 212
-213 -211
-213 -212
211 212 213
-214 -206
-214 -209
206 209 214
-215 -210
-215 -214
210 214 215
-216 -36
-216 37
36 -37 216
-217 36
-217 -37
-36 37 217
-218 -216
-218 -217
216 217 218
-219 36
-219 37
-36 -37 219
-220 215
-220 -218
-215 218 220
-221 -215
-221 218
215 -218 221
-222 -220
-222 -221
220 221 222
-223 -215
-223 -218
215 218 223
-224 -219
-224 -223
219 223 224
-225 -37
-225 38
37 -38 225
-226 37
-226 -38
-37 38 226
-227 -225
-227 -226
225 226 227
-228 37
-228 38
-37 -38 228
-229 224
-229 -227
-224 227 229
-230 -224
-230 227
224 -227 230
-231 -229
-231 -230
229 230 231
-232 -224
-232 -227
224 227 232
-233 -228
-233 -232
228 232 233
-234 -38
-234 39
38 -39 234
-235 38
-235 -39
-38 39 235
-236 -234
-236 -235
234 235 236
-237 38
-237 39
-38 -39 237
-238 233
-238 -236
-233 236 238
-239 -233
-239 236
233 -236 239
-240 -238
-240 -239
238 239 240
-241 -233
-241 -236
233 236 241
-242 -237
-242 -241
237 241 242
-243 -39
-243 40
39 -40 243
-244 39
-244 -40
-39 40 244
-245 -243
-245 -244
243 244 245
-246 39
-246 40
-39 -40 246
-247 242
-247 -245
-242 245 247
-248 -242
-248 245
242 -245 248
-249 -247
-249 -248
247 248 249
-250 -242
-250 -245
242 245 250
-251 -246
-251 -250
246 250 251
-252 -40
-252 41
40 -41 252
-253 40
-253 -41
-40 41 253
-254 -252
-254 -253
252 253 254
-255 40
-255 41
-40 -41 255
-256 251
-256 -254
-251 254 256
-257 -251
-257 254
251 -254 257
-258 -256
-258 -257
256 257 258
-259 -251
-259 -254
251 254 259
-260 -255
-260 -259
255 259 260
-261 -41
-261 42
41 -42 261
-262 41
-262 -42
-41 42 262
-263 -261
-263 -262
261 262 263
-264 41
-264 42
-41 -42 264
-265 260
-265 -263
-260 263 265
-266 -260
-266 263
260 -263 266
-267 -265
-267 -266
265 266 267
-268 -260
-268 -263
260 263 268
-269 -264
-269 -268
264 268 269
-270 -42
-270 43
42 -43 270
-271 42
-271 -43
-42 43 271
-272 -270
-272 -271
270 271 272
-273 42
-273 43
-42 -43 273
-274 269
-274 -272
-269 272 274
-275 -269
-275 272
269 -272 275
-276 -274
-276 -275
274 275 276
-277 -269
-277 -272
269 272 277
-278 -273
-278 -277
273 277 278
-279 -43
-279 44
43 -44 279
-280 43
-280 -44
-43 44 280
-281 -279
-281 -280
279 280 281
-282 43
-282 44
-43 -44 282
-283 278
-283 -281
-278 281 283
-284 -278
-284 281
278 -281 284
-285 -283
-285 -284
283 284 285
-286 -278
-286 -281
278 281 286
-287 -282
-287 -286
282 286 287
-288 -44
-288 45
44 -45 288
-289 44
-289 -45
-44 45 289
-290 -288
-290 -289
288 289 290
-291 44
-291 45
-44 -45 291
-292 287
-292 -290
-287 290 292
-293 -287
-293 290
287 -290 293
-294 -292
-294 -293
292 293 294
-295 -287
-295 -290
287 290 295
-296 -291
-296 -295
291 295 296
-297 -45
-297 46
45 -46 297
-298 45
-298 -46
-45 46 298
-299 -297
-299 -298
297 298 299
-300 45
-300 46
-45 -46 300
-301 296
-301 -299
-296 299 301
-302 -296
-302 299
296 -299 302
-303 -301
-303 -302
301 302 303
-304 -296
-304 -299
296 299 304
-305 -300
-305 -304
300 304 305
-306 -46
-306 47
46 -47 306
-307 46
-307 -47
-46 47 307
-308 -306
-308 -307
306 307 308
-309 46
-309 47
-46 -47 309
-310 305
-310 -308
-305 308 310
-311 -305
-311 308
305 -308 311
-312 -310
-312 -311
310 311 312
-313 -305
-313 -308
305 308 313
-314 -309
-314 -313
309 313 314
-315 -47
-315 48
47 -48 315
-316 47
-316 -48
-47 48 316
-317 -315
-317 -316
315 316 317
-318 47
-318 48
-47 -48 318
-319 314
-319 -317
-314 317 319
-320 -314
-320 317
314 -317 320
-321 -319
-321 -320
319 320 321
-322 -314
-322 -317
314 317 322
-323 -318
-323 -322
318 322 323
-324 -48
-324 49
48 -49 324
-325 48
-325 -49
-48 49 325
-326 -324
-326 -325
324 325 326
-327 48
-327 49
-48 -49 327
-328 323
-328 -326
-323 326 328
-329 -323
-329 326
323 -326 329
-330 -328
-330 -329
328 329 330
-331 -323
-331 -326
323 326 331
-332 -327
-332 -331
327 331 332
-333 -49
-333 50
49 -50 333
-334 49
-334 -50
-49 50 334
-335 -333
-335 -334
333 334 335
-336 49
-336 50
-49 -50 336
-337 332
-337 -335
-332 335 337
-338 -332
-338 335
332 -335 338
-339 -337
-339 -338
337 338 339
-340 -332
-340 -335
332 335 340
-341 -336
-341 -340
336 340 341
-342 -50
-342 51
50 -51 342
-343 50
-343 -51
-50 51 343
-344 -342
-344 -343
342 343 344
-345 50
-345 51
-50 -51 345
-346 341
-346 -344
-341 344 346
-347 -341
-347 344
341 -344 347
-348 -346
-348 -347
346 347 348
-349 -341
-349 -344
341 344 349
-350 -345
-350 -349
345 349 350
-351 -51
-351 52
51 -52 351
-352 51
-352 -52
-51 52 352
-353 -351
-353 -352
351 352 353
-354 51
-354 52
-51 -52 354
-355 350
-355 -353
-350 353 355
-356 -350
-356 353
350 -353 356
-357 -355
-357 -356
355 356 357
-358 -350
-358 -353
350 353 358
-359 -354
-359 -358
354 358 359
-360 -52
-360 53
52 -53 360
-361 52
-361 -53
-52 53 361
-362 -360
-362 -361
360 361 362
-363 52
-363 53
-52 -53 363
-364 359
-364 -362
-359 362 364
-365 -359
-365 362
359 -362 365
-366 -364
-366 -365
364 365 366
-367 -359
-367 -362
359 362 367
-368 -363
-368 -367
363 367 368
-369 -53
-369 54
53 -54 369
-370 53
-370 -54
-53 54 370
-371 -369
-371 -370
369 370 371
-372 53
-372 54
-53 -54 372
-373 368
-373 -371
-368 371 373
-374 -368
-374 371
368 -371 374
-375 -373
-375 -374
373 374 375
-376 -368
-376 -371
368 371 376
-377 -372
-377 -376
372 376 377
-378 -54
-378 55
54 -55 378
-379 54
-379 -55
-54 55 379
-380 -378
-380 -379
378 379 380
-381 54
-381 55
-54 -55 381
-382 377
-382 -380
-377 380 382
-383 -377
-383 380
377 -380 383
-384 -382
-384 -383
382 383 384
-385 -377
-385 -380
377 380 385
-386 -381
-386 -385
381 385 386
-387 -55
-387 56
55 -56 387
-388 55
-388 -56
-55 56 388
-389 -387
-389 -388
387 388 389
-390 55
-390 56
-55 -56 390
-391 386
-391 -389
-386 389 391
-392 -386
-392 389
386 -389 392
-393 -391
-393 -392
391 392 393
-394 -386
-394 -389
386 389 394
-395 -390
-395 -394
390 394 395
-396 22
-396 -96
-22 96 396
-397 -22
-397 24
22 -24 397
-398 -396
-398 -397
396 397 398
-399 22
-399 -105
-22 105 399
-400 -22
-400 25
22 -25 400
-401 -399
-401 -400
399 400 401
-402 22
-402 -114
-22 114 402
-403 -22
-403 26
22 -26 403
-404 -402
-404 -403
402 403 404
-405 22
-405 -123
-22 123 405
-406 -22
-406 27
22 -27 406
-407 -405
-407 -406
405 406 407
-408 22
-408 -132
-22 132 408
-409 -22
-409 28
22 -28 409
-410 -408
-410 -409
408 409 410
-411 22
-411 -141
-22 141 411
-412 -22
-412 29
22 -29 412
-413 -411
-413 -412
411 412 413
-414 22
-414 -150
-22 150 414
-415 -22
-415 30
22 -30 415
-416 -414
-416 -415
414 415 416
-417 22
-417 -159
-22 159 417
-418 -22
-418 31
22 -31 418
-419 -417
-419 -418
417 418 419
-420 22
-420 -168
-22 168 420
-421 -22
-421 32
22 -32 421
-422 -420
-422 -421
420 421 422
-423 22
-423 -177
-22 177 423
-424 -22
-424 33
22 -33 424
-425 -423
-425 -424
423 424 425
-426 22
-426 -186
-22 186 426
-427 -22
-427 34
22 -34 427
-428 -426
-428 -427
426 427 428
-429 22
-429 -195
-22 195 429
-430 -22
-430 35
22 -35 430
-431 -429
-431 -430
429 430 431
-432 22
-432 -204
-22 204 432
-433 -22
-433 36
22 -36 433
-434 -432
-434 -433
432 433 434
-435 22
-435 -213
-22 213 435
-436 -22
-436 37
22 -37 436
-437 -435
-437 -436
435 436 437
-438 22
-438 -222
-22 222 438
-439 -22
-439 38
22 -38 439
-440 -438
-440 -439
438 439 440
-441 22
-441 -231
-22 231 441
-442 -22
-442 39
22 -39 442
-443 -441
-443 -442
441 442 443
-444 22
-444 -240
-22 240 444
-445 -22
-445 40
22 -40 445
-446 -444
-446 -445
444 445 446
-447 22
-447 -249
-22 249 447
-448 -22
-448 41
22 -41 448
-449 -447
-449 -448
447 448 449
-450 22
-450 -258
-22 258 450
-451 -22
-451 42
22 -42 451
-452 -450
-452 -451
450 451 452
-453 22
-453 -267
-22 267 453
-454 -22
-454 43
22 -43 454
-455 -453
-455 -454
453 454 455
-456 22
-456 -276
-22 276 456
-457 -22
-457 44
22 -44 457
-458 -456
-458 -457
456 457 458
-459 22
-459 -285
-22 285 459
-460 -22
-460 45
22 -45 460
-461 -459
-461 -460
459 460 461
-462 22
-462 -294
-22 294 462
-463 -22
-463 46
22 -46 463
-464 -462
-464 -463
462 463 464
-465 22
-465 -303
-22 303 465
-466 -22
-466 47
22 -47 466
-467 -465
-467 -466
465 466 467
-468 22
-468 -312
-22 312 468
-469 -22
-469 48
22 -48 469
-470 -468
-470 -469
468 469 470
-471 22
-471 -321
-22 321 471
-472 -22
-472 49
22 -49 472
-473 -471
-473 -472
471 472 473
-474 22
-474 -330
-22 330 474
-475 -22
-475 50
22 -50 475
-476 -474
-476 -475
474 475 476
-477 22
-477 -339
-22 339 477
-478 -22
-478 51
22 -51 478
-479 -477
-479 -478
477 478 479
-480 22
-480 -348
-22 348 480
-481 -22
-481 52
22 -52 481
-482 -480
-482 -481
480 481 482
-483 22
-483 -357
-22 357 483
-484 -22
-484 53
22 -53 484
-485 -483
-485 -484
483 484 485
-486 22
-486 -366
-22 366 486
-487 -22
-487 54
22 -54 487
-488 -486
-488 -487
486 487 488
-489 22
-489 -375
-22 375 489
-490 -22
-490 55
22 -55 490
-491 -489
-491 -490
489 490 491
-492 22
-492 -384
-22 384 492
-493 -22
-493 56
22 -56 493
-494 -492
-494 -493
492 493 494
-495 22
-495 -393
-22 393 495
-496 1
-496 89
-1 -89 496
-497 -89
-497 90
89 -90 497
-498 -496
-498 -497
496 497 498
-499 2
-499 89
-2 -89 499
-500 -89
-500 -398
89 398 500
-501 -499
-501 -500
499 500 501
-502 3
-502 89
-3 -89 502
-503 -89
-503 -401
89 401 503
-504 -502
-504 -503
502 503 504
-505 4
-505 89
-4 -89 505
-506 -89
-506 -404
89 404 506
-507 -505
-507 -506
505 506 507
-508 5
-508 89
-5 -89 508
-509 -89
-509 -407
89 407 509
-510 -508
-510 -509
508 509 510
-511 6
-511 89
-6 -89 511
-512 -89
-512 -410
89 410 512
-513 -511
-513 -512
511 512 513
-514 7
-514 89
-7 -89 514
-515 -89
-515 -413
89 413 515
-516 -514
-516 -515
514 515 516
-517 8
-517 89
-8 -89 517
-518 -89
-518 -416
89 416 518
-519 -517
-519 -518
517 518 519
-520 9
-520 89
-9 -89 520
-521 -89
-521 -419
89 419 521
-522 -520
-522 -521
520 521 522
-523 10
-523 89
-10 -89 523
-524 -89
-524 -422
89 422 524
-525 -523
-525 -524
523 524 525
-526 11
-526 89
-11 -89 526
-527 -89
-527 -425
89 425 527
-528 -526
-528 -527
526 527 528
-529 12
-529 89
-12 -89 529
-530 -89
-530 -428
89 428 530
-531 -529
-531 -530
529 530 531
-532 13
-532 89
-13 -89 532
-533 -89
-533 -431
89 431 533
-534 -532
-534 -533
532 533 534
-535 14
-535 89
-14 -89 535
-536 -89
-536 -434
89 434 536
-537 -535
-537 -536
535 536 537
-538 15
-538 89
-15 -89 538
-539 -89
-539 -437
89 437 539
-540 -538
-540 -539
538 539 540
-541 16
-541 89
-16 -89 541
-542 -89
-542 -440
89 440 542
-543 -541
-543 -542
541 542 543
-544 17
-544 89
-17 -89 544
-545 -89
-545 -443
89 443 545
-546 -544
-546 -545
544 545 546
-547 18
-547 89
-18 -89 547
-548 -89
-548 -446
89 446 548
-549 -547
-549 -548
547 548 549
-550 19
-550 89
-19 -89 550
-551 -89
-551 -449
89 449 551
-552 -550
-552 -551
550 551 552
-553 20
-553 89
-20 -89 553
-554 -89
-554 -452
89 452 554
-555 -553
-555 -554
553 554 555
-556 21
-556 89
-21 -89 556
-557 -89
-557 -455
89 455 557
-558 -556
-558 -557
556 557 558
-559 -89
-559 -458
89 458 559
-560 -89
-560 -461
89 461 560
-561 -89
-561 -464
89 464 561
-562 -89
-562 -467
89 467 562
-563 -89
-563 -470
89 470 563
-564 -89
-564 -473
89 473 564
-565 -89
-565 -476
89 476 565
-566 -89
-566 -479
89 479 566
-567 -89
-567 -482
89 482 567
-568 -89
-568 -485
89 485 568
-569 -89
-569 -488
89 488 569
-570 -89
-570 -491
89 491 570
-571 -89
-571 -494
89 494 571
-572 -89
-572 495
89 -495 572
-573 -56
-573 395
56 -395 573
-574 22
-574 -573
-22 573 574
574
